Route #1: 1 42 21 54 55 19 24 2 1
Route #2: 1 53 18 56 52 35 44 1
Route #3: 1 59 33 41 9 34 66 30 4 15 40 5 1
Route #4: 1 38 49 26 64 47 27 63 17 31 20 1
Route #5: 1 8 58 12 32 46 14 57 23 36 1
Route #6: 1 39 65 45 60 3 11 1
Route #7: 1 43 28 6 61 16 22 37 1
Route #8: 1 29 62 48 51 7 1
Route #9: 1 50 13 25 10 1
cost 1449.6917939177533
